x05m05e0t1tp5_05
3112
3112
3112
3112
3149
3149
3243
3243
3375
3375
3375
3375
3375
3375
3375
3375
3375
3375
3375
3375
3375
3375
3375
3375
3375
3375
3375
3375
3375
3389
3389
3389
3389
3389
3389
3389
3389
3389
3389
3389
3389
3389
3389
3389
3389
3389
3389
3389
3389
3389
3389
3389
3389
3389
3389
3389
3389
3389
3389
3389
3389
3389
3389
3389
3389
3389
3389
3389
3389
3389
3389
3389
3389
3389
3389
3389
3389
3389
3389
3389
3389
3389
3389
3389
3389
3389
3389
3389
3398
3398
3398
3398
3398
3398
3398
3398
3398
3398
3398
3398
3398
3398
3398
3398
3398
3398
3398
3398
3398
3398
3398
3398
3398
3398
3398
3398
3398
3398
3398
3398
3398
3398
3398
3398
3398
3398
3398
3398
3398
3398
3398
3398
3398
3398
3398
3398
3398
3398
3398
3398
3398
3398
3398
3398
3398
3398
3398
3398
3398
3398
3398
3398
3398
3398
3398
3398
3398
3398
3398
3398
3398
3398
3398
3398
3398
3398
3398
3398
3398
3398
3398
3398
3398
3398
3398
3398
3398
3398
3398
3398
3398
3398
3398
3398
3398
3398
3398
3398
3398
3398
3398
3398
3398
3398
3410
3410
3410
3410
3410
3410
3410
3410
3410
3410
3410
3410
3410
3410
3410
3410
3410
3410
3410
3410
3410
3410
3410
3410
3410
3410
3410
3410
3410
3410
3410
3410
3410
3410
3410
3410
3410
3410
3410
3410
3410
3506
3506
3506
3506
3506
3506
3506
3506
3506
3506
3506
3506
3506
3506
3506
3506
3506
3506
3506
3506
3506
3506
3506
3506
3506
3506
3506
3506
3506
3506
3506
3506
3506
3506
3506
3506
3506
3506
3506
3506
3506
3506
3506
3506
3506
3506
3506
3506
3506
3506
3506
3506
3506
3506
3506
3506
3506
3506
3506
3506
3506
3506
3506
3506
3506
3506
3506
3506
3506
3506
3506
3506
3506
3506
3506
3506
3506
3506
3506
3506
3565
3565
3565
3565
3565
3565
3565
3565
3565
3565
3565
3565
3565
3565
3565
3565
3565
3565
3565
3565
3565
3565
3565
3565
3565
3565
3565
3565
3565
3565
3565
3565
3565
3565
3565
3565
3565
3565
3565
3565
3565
3565
3565
3565
3565
3565
3565
3565
3565
3565
3565
3565
3565
3565
3565
3565
3565
3565
3565
3565
3565
3565
3565
3565
3565
3565
3565
3565
3565
3565
3565
3565
3565
3565
3565
3565
3565
3565
3565
3565
3565
3565
3565
3565
3565
3565
3565
3565
3565
3565
3565
3565
3565
3565
3565
3565
3565
3565
3565
3565
3565
3565
3565
3565
3565
3565
3565
3565
3565
3565
3565
3565
3565
3565
3565
3565
3565
3565
3565
3565
3565
3565
3565
3565
3565
3565
3565
3565
3565
3565
3565
3565
3565
3565
3565
3565
3565
3565
3565
3565
3565
3565
3565
3565
3565
3565
3565
3565
3565
3565
3565
3565
3565
3565
3565
3565
3565
3565
3565
3565
3565
3565
3565
3565
3565
3565
3565
3565
3565
3565
3565
3565
3565
3565
3565
3565
3565
3565
3565
3565
3565
3565
3565
3565
3565
3565
3565
3565
3565
3696
3696
3696
3696
3696
3696
3696
3696
3696
3696
3696
3696
3696
3696
3696
3696
3696
3696
3696
3696
3696
3696
3696
3696
3696
3696
3696
3696
3696
3696
3696
3696
3696
3696
3696
3696
3696
3696
3696
3696
3696
3696
3696
3696
3696
3696
3696
3696
3696
3696
3696
3696
3696
3696
3696
3696
3696
3696
3696
3696
3696
3696
3696
3696
3696
3696
3696
3696
3696
3696
3696
3696
3696
3696
3696
3696
3696
3696
3696
3696
3696
3696
3696
3696
3696
3696
3696
3696
3696
3696
3696
3696
3696
3696
3696
3696
3696
3696
3696
3696
3696
3696
3696
3696
3696
3696
3696
3696
3696
3696
3696
3696
3696
3696
3696
3696
3696
3696
3696
3696
3696
3696
3696
3696
3696
3696
3696
3696
3696
3696
3696
3696
3696
3696
3696
3696
3696
3696
3696
3696
3696
3696
3696
3696
3696
3696
3696
3696
3696
3696
3696
3696
3696
3696
3696
3696
3696
3696
3696
3696
3696
3696
3696
3696
3696
3696
3696
3696
3696
3696
3696
3696
3696
3696
3696
3696
3696
3696
3696
3696
3696
3696
3696
3696
3696
3696
3696
3696
3696
3696
3696
3696
3696
3696
3696
3696
3696
3696
3696
3696
3696
3696
3696
3696
3696
3696
3696
3696
3696
3696
3696
3696
3696
3696
3696
3696
3696
3696
3696
3696
3696
3696
3696
3696
3696
3696
3696
3696
3696
3696
3696
3696
3696
3696
3696
3696
3696
3696
3696
3696
3696
3696
3696
3696
3696
3696
3696
3696
3696
3696
3696
3696
3696
3696
3696
3696
3696
3696
3696
3696
3696
3696
3696
3696
3696
3696
3696
3696
3696
3696
3696
3696
3696
3696
3696
3696
3696
3696
3696
3696
3696
3696
3696
3696
3696
3696
3696
3696
3696
3696
3696
3696
3696
3696
3696
3696
3696
3696
3696
3696
3696
3696
3696
3696
3696
3696
3696
3696
3696
3696
3696
3696
3696
3696
3696
3696
3696
3696
3696
3696
3696
3696
3696
3696
3696
3696
3696
3696
3696
3696
3696
3696
3696
3696
3696
3696
3696
3696
3696
3696
3696
3696
3696
3696
3696
3696
3696
3696
3696
3696
3696
3696
3696
3696
3696
3696
3696
3696
3696
3696
3696
3696
3696
3696
3696
3696
3696
3696
3696
3696
3696
3696
3696
3696
3696
3696
3696
3696
3696
3696
3696
3696
3696
3696
3696
3696
3696
3696
3696
3696
3696
3696
3696
3696
3696
3696
3696
3696
3696
3696
3696
3696
3696
3696
3696
3696
3696
3696
3696
3696
3696
3696
3696
3696
3696
3696
3696
3696
3696
3696
3696
3696
3696
3696
3696
3696
3696
3696
3696
3696
3696
3696
3696
3696
3696
3696
3696
3696
3696
3696
3696
3696
3696
3696
3696
3696
3696
3696
3696
3696
3696
3696
3696
3696
3696
3696
3696
3696
3696
3696
3696
3696
3696
3696
3696
3696
3696
3696
3696
3696
3696
3696
3696
3696
3696
3696
3696
3696
3696
3696
3696
3696
3696
3696
3696
3696
3696
3696
3696
3696
3696
3696
3696
3696
3696
3696
